data;

param num_top:=4;

#nodes and edges of the physical network
param n := 10;

set E := (1,2) (1,3) (1,7) (2,4) (2,7) (3,5) (4,8) (5,6) (5,7) (6,7) (6,9) (7,8) (7,9) (8,10) (9,10) ;

#nodes and edges of the virtual networks
set Nl[1] := 5 3 4 2 1 ;
set Nl[2] := 6 10 2 9 4 ;
set Nl[3] := 6 10 4 9 2 ;
set Nl[4] := 6 9 5 4 1 ;

set El[1] := (3,5) (3,4) (2,4) (1,2) (1,5) (1,3) (1,4) (4,5) (2,5) (2,3) ;
set El[2] := (6,10) (2,10) (2,9) (4,9) (4,6) (6,9) (2,4) (9,10) (4,10) (2,6) ;
set El[3] := (6,10) (4,10) (4,9) (2,9) (2,6) (4,6) (2,10) (2,4) (9,10) (6,9) ;
set El[4] := (6,9) (5,9) (4,5) (1,4) (1,6) (1,9) (4,6) (4,9) (5,6) (1,5) ;
